param n := 120;
param c := 3000
param : V : p w :=
   0	  18	 470
   1	  16	 254
   2	  49	 276
   3	  93	 393
   4	  14	 271
   5	  38	 336
   6	  21	 354
   7	  87	 282
   8	  44	 364
   9	  70	 366
  10	  80	 262
  11	  98	 372
  12	   1	 418
  13	  63	 265
  14	  63	 317
  15	  24	 442
  16	   1	 257
  17	  67	 301
  18	   7	 463
  19	  19	 252
  20	  28	 285
  21	  93	 447
  22	   5	 254
  23	  51	 299
  24	  13	 473
  25	  50	 250
  26	  43	 277
  27	  54	 412
  28	  57	 272
  29	  62	 316
  30	   8	 351
  31	  49	 253
  32	  66	 396
  33	  11	 415
  34	  67	 289
  35	  67	 296
  36	  66	 403
  37	  20	 268
  38	  89	 329
  39	  69	 381
  40	  73	 295
  41	   2	 324
  42	  34	 397
  43	  43	 299
  44	  70	 304
  45	  57	 499
  46	  50	 250
  47	  24	 251
  48	  31	 457
  49	  37	 255
  50	  45	 288
  51	  96	 437
  52	  22	 278
  53	  94	 285
  54	  26	 354
  55	  24	 298
  56	  89	 348
  57	  44	 412
  58	  98	 265
  59	  33	 323
  60	  52	 419
  61	  24	 277
  62	  16	 304
  63	  48	 471
  64	  66	 252
  65	  34	 277
  66	  45	 434
  67	  68	 279
  68	  13	 287
  69	   1	 354
  70	  98	 256
  71	  43	 390
  72	  68	 476
  73	  45	 255
  74	  17	 269
  75	   5	 480
  76	  66	 254
  77	  34	 266
  78	   4	 418
  79	  45	 254
  80	  33	 328
  81	  28	 369
  82	   6	 280
  83	  79	 351
  84	  93	 411
  85	  64	 265
  86	  86	 324
  87	  65	 432
  88	  24	 278
  89	  16	 290
  90	   7	 406
  91	  92	 273
  92	  82	 321
  93	  36	 439
  94	  53	 274
  95	  87	 287
  96	  63	 393
  97	  42	 261
  98	  91	 346
  99	  36	 444
 100	  99	 255
 101	  71	 301
 102	  62	 499
 103	  46	 250
 104	  30	 251
 105	  83	 439
 106	   7	 261
 107	  11	 300
 108	  62	 374
 109	  99	 306
 110	  38	 320
 111	  46	 467
 112	  54	 257
 113	  51	 276
 114	  19	 410
 115	   4	 274
 116	   7	 316
 117	  66	 405
 118	  57	 294
 119	  11	 301
;

set E :=
   0	   5
   0	   7
   0	   8
   0	  11
   0	  12
   0	  15
   0	  16
   0	  17
   0	  20
   0	  21
   0	  24
   0	  28
   0	  29
   0	  30
   0	  32
   0	  34
   0	  35
   0	  40
   0	  42
   0	  44
   0	  45
   0	  49
   0	  50
   0	  52
   0	  53
   0	  54
   0	  67
   0	  72
   0	  78
   0	  82
   0	  84
   0	  89
   0	  91
   0	  92
   0	  94
   0	  96
   0	  98
   0	 100
   0	 102
   0	 109
   0	 113
   0	 116
   0	 117
   1	   4
   1	   5
   1	   6
   1	   7
   1	   8
   1	  14
   1	  19
   1	  21
   1	  22
   1	  24
   1	  26
   1	  27
   1	  31
   1	  35
   1	  36
   1	  37
   1	  41
   1	  43
   1	  44
   1	  49
   1	  54
   1	  59
   1	  60
   1	  61
   1	  62
   1	  63
   1	  64
   1	  65
   1	  68
   1	  69
   1	  74
   1	  76
   1	  81
   1	  84
   1	  87
   1	  89
   1	  90
   1	  94
   1	  95
   1	  97
   1	 103
   1	 107
   1	 108
   1	 111
   1	 112
   1	 114
   1	 117
   1	 119
   2	   3
   2	   4
   2	   8
   2	   9
   2	  10
   2	  12
   2	  14
   2	  15
   2	  16
   2	  17
   2	  21
   2	  22
   2	  28
   2	  31
   2	  34
   2	  42
   2	  43
   2	  49
   2	  57
   2	  58
   2	  61
   2	  63
   2	  64
   2	  65
   2	  67
   2	  70
   2	  71
   2	  73
   2	  79
   2	  80
   2	  82
   2	  84
   2	  92
   2	  94
   2	  95
   2	  97
   2	  99
   2	 106
   2	 108
   2	 110
   2	 111
   2	 113
   2	 118
   2	 119
   3	   4
   3	  11
   3	  12
   3	  13
   3	  14
   3	  15
   3	  17
   3	  18
   3	  20
   3	  26
   3	  28
   3	  31
   3	  34
   3	  36
   3	  37
   3	  39
   3	  41
   3	  43
   3	  44
   3	  46
   3	  48
   3	  49
   3	  50
   3	  51
   3	  53
   3	  56
   3	  57
   3	  61
   3	  63
   3	  69
   3	  70
   3	  72
   3	  76
   3	  77
   3	  80
   3	  81
   3	  82
   3	  84
   3	  85
   3	  88
   3	  89
   3	  92
   3	  95
   3	  96
   3	 103
   3	 104
   3	 106
   3	 107
   3	 109
   3	 112
   3	 113
   3	 119
   4	   8
   4	  12
   4	  16
   4	  17
   4	  22
   4	  23
   4	  31
   4	  34
   4	  35
   4	  36
   4	  38
   4	  41
   4	  43
   4	  46
   4	  47
   4	  48
   4	  49
   4	  51
   4	  53
   4	  56
   4	  59
   4	  62
   4	  64
   4	  70
   4	  71
   4	  72
   4	  75
   4	  77
   4	  80
   4	  81
   4	  83
   4	  84
   4	  89
   4	  91
   4	  92
   4	  95
   4	  96
   4	  97
   4	  98
   4	 109
   4	 110
   4	 112
   4	 114
   4	 117
   5	   8
   5	  10
   5	  14
   5	  17
   5	  18
   5	  20
   5	  21
   5	  22
   5	  25
   5	  27
   5	  28
   5	  29
   5	  30
   5	  31
   5	  34
   5	  35
   5	  36
   5	  38
   5	  40
   5	  41
   5	  42
   5	  43
   5	  44
   5	  49
   5	  51
   5	  52
   5	  55
   5	  57
   5	  58
   5	  60
   5	  61
   5	  62
   5	  64
   5	  65
   5	  69
   5	  71
   5	  74
   5	  77
   5	  81
   5	  83
   5	  85
   5	  87
   5	  88
   5	  89
   5	  97
   5	 100
   5	 101
   5	 103
   5	 112
   5	 116
   5	 118
   5	 119
   6	  11
   6	  13
   6	  14
   6	  15
   6	  17
   6	  18
   6	  22
   6	  25
   6	  26
   6	  28
   6	  32
   6	  33
   6	  35
   6	  36
   6	  37
   6	  38
   6	  40
   6	  43
   6	  45
   6	  50
   6	  51
   6	  54
   6	  56
   6	  57
   6	  58
   6	  60
   6	  61
   6	  62
   6	  65
   6	  66
   6	  68
   6	  70
   6	  72
   6	  73
   6	  75
   6	  79
   6	  80
   6	  87
   6	  92
   6	  94
   6	  99
   6	 101
   6	 105
   6	 106
   6	 113
   6	 114
   6	 119
   7	   8
   7	   9
   7	  10
   7	  12
   7	  18
   7	  23
   7	  30
   7	  31
   7	  36
   7	  39
   7	  45
   7	  46
   7	  57
   7	  63
   7	  64
   7	  66
   7	  67
   7	  70
   7	  74
   7	  75
   7	  77
   7	  78
   7	  84
   7	  86
   7	  93
   7	  95
   7	  99
   7	 100
   7	 103
   7	 105
   7	 106
   7	 109
   7	 110
   7	 113
   7	 114
   7	 115
   7	 119
   8	  11
   8	  12
   8	  14
   8	  17
   8	  20
   8	  21
   8	  25
   8	  26
   8	  27
   8	  29
   8	  31
   8	  39
   8	  40
   8	  42
   8	  53
   8	  54
   8	  61
   8	  62
   8	  65
   8	  66
   8	  69
   8	  72
   8	  75
   8	  78
   8	  82
   8	  83
   8	  85
   8	  90
   8	  91
   8	  92
   8	  94
   8	  95
   8	  96
   8	  97
   8	 105
   8	 106
   8	 107
   8	 108
   8	 113
   8	 115
   8	 118
   9	  10
   9	  11
   9	  12
   9	  19
   9	  23
   9	  24
   9	  27
   9	  30
   9	  31
   9	  54
   9	  55
   9	  57
   9	  60
   9	  61
   9	  63
   9	  65
   9	  67
   9	  70
   9	  72
   9	  73
   9	  74
   9	  77
   9	  79
   9	  80
   9	  84
   9	  90
   9	  93
   9	  94
   9	  96
   9	 101
   9	 110
   9	 111
   9	 113
   9	 115
   9	 117
  10	  23
  10	  25
  10	  26
  10	  27
  10	  28
  10	  29
  10	  31
  10	  33
  10	  35
  10	  37
  10	  39
  10	  41
  10	  43
  10	  45
  10	  48
  10	  50
  10	  54
  10	  55
  10	  57
  10	  61
  10	  64
  10	  68
  10	  69
  10	  70
  10	  73
  10	  74
  10	  77
  10	  79
  10	  82
  10	  83
  10	  85
  10	  86
  10	  88
  10	  95
  10	  96
  10	  98
  10	  99
  10	 101
  10	 104
  10	 105
  10	 110
  10	 111
  10	 114
  10	 115
  10	 119
  11	  14
  11	  19
  11	  21
  11	  22
  11	  25
  11	  30
  11	  34
  11	  37
  11	  38
  11	  41
  11	  44
  11	  45
  11	  46
  11	  48
  11	  49
  11	  53
  11	  55
  11	  56
  11	  57
  11	  61
  11	  63
  11	  64
  11	  70
  11	  77
  11	  79
  11	  80
  11	  82
  11	  84
  11	  86
  11	  88
  11	  90
  11	  92
  11	  94
  11	  96
  11	  97
  11	  99
  11	 102
  11	 104
  11	 106
  11	 110
  11	 111
  11	 115
  12	  14
  12	  15
  12	  16
  12	  19
  12	  21
  12	  26
  12	  28
  12	  29
  12	  30
  12	  35
  12	  36
  12	  37
  12	  39
  12	  42
  12	  49
  12	  50
  12	  51
  12	  56
  12	  59
  12	  60
  12	  61
  12	  62
  12	  65
  12	  68
  12	  71
  12	  74
  12	  77
  12	  81
  12	  82
  12	  83
  12	  84
  12	  86
  12	  88
  12	  94
  12	  97
  12	  99
  12	 103
  12	 104
  12	 105
  12	 109
  12	 111
  12	 113
  12	 114
  12	 116
  13	  14
  13	  16
  13	  18
  13	  19
  13	  24
  13	  29
  13	  30
  13	  31
  13	  34
  13	  35
  13	  36
  13	  37
  13	  39
  13	  40
  13	  45
  13	  47
  13	  48
  13	  49
  13	  52
  13	  55
  13	  56
  13	  57
  13	  58
  13	  59
  13	  60
  13	  64
  13	  66
  13	  71
  13	  72
  13	  73
  13	  80
  13	  82
  13	  83
  13	  87
  13	  92
  13	  93
  13	  94
  13	  97
  13	 104
  13	 105
  13	 106
  13	 111
  13	 112
  13	 113
  13	 118
  13	 119
  14	  17
  14	  18
  14	  20
  14	  21
  14	  23
  14	  27
  14	  28
  14	  32
  14	  35
  14	  38
  14	  39
  14	  40
  14	  43
  14	  45
  14	  46
  14	  53
  14	  54
  14	  55
  14	  56
  14	  65
  14	  66
  14	  76
  14	  80
  14	  82
  14	  90
  14	  96
  14	  99
  14	 101
  14	 102
  14	 103
  14	 104
  14	 105
  14	 106
  14	 107
  14	 108
  14	 109
  14	 110
  14	 112
  14	 116
  14	 117
  14	 119
  15	  17
  15	  19
  15	  20
  15	  21
  15	  22
  15	  23
  15	  24
  15	  25
  15	  26
  15	  28
  15	  30
  15	  31
  15	  35
  15	  36
  15	  38
  15	  43
  15	  44
  15	  45
  15	  47
  15	  49
  15	  51
  15	  56
  15	  58
  15	  59
  15	  63
  15	  65
  15	  66
  15	  67
  15	  68
  15	  70
  15	  71
  15	  73
  15	  74
  15	  75
  15	  77
  15	  81
  15	  84
  15	  91
  15	  92
  15	  94
  15	  95
  15	  97
  15	 100
  15	 102
  15	 103
  15	 104
  15	 108
  15	 109
  15	 111
  15	 112
  15	 115
  15	 119
  16	  18
  16	  20
  16	  23
  16	  25
  16	  26
  16	  30
  16	  32
  16	  34
  16	  35
  16	  39
  16	  40
  16	  41
  16	  44
  16	  48
  16	  49
  16	  51
  16	  54
  16	  55
  16	  56
  16	  57
  16	  58
  16	  59
  16	  60
  16	  64
  16	  67
  16	  68
  16	  70
  16	  76
  16	  79
  16	  80
  16	  81
  16	  85
  16	  90
  16	  92
  16	  93
  16	  94
  16	  97
  16	  98
  16	  99
  16	 100
  16	 103
  16	 106
  16	 109
  16	 110
  16	 115
  16	 116
  16	 118
  17	  18
  17	  20
  17	  21
  17	  26
  17	  27
  17	  31
  17	  32
  17	  34
  17	  35
  17	  38
  17	  39
  17	  40
  17	  43
  17	  46
  17	  49
  17	  55
  17	  57
  17	  68
  17	  69
  17	  71
  17	  72
  17	  73
  17	  74
  17	  75
  17	  76
  17	  77
  17	  80
  17	  82
  17	  84
  17	  86
  17	  90
  17	  92
  17	  97
  17	 101
  17	 103
  17	 106
  17	 108
  17	 112
  17	 114
  17	 115
  17	 117
  17	 118
  18	  22
  18	  25
  18	  26
  18	  27
  18	  30
  18	  31
  18	  34
  18	  35
  18	  36
  18	  38
  18	  39
  18	  41
  18	  42
  18	  43
  18	  45
  18	  46
  18	  49
  18	  51
  18	  53
  18	  54
  18	  59
  18	  60
  18	  62
  18	  63
  18	  64
  18	  65
  18	  66
  18	  69
  18	  70
  18	  74
  18	  78
  18	  82
  18	  84
  18	  86
  18	  88
  18	  89
  18	 100
  18	 105
  18	 107
  18	 113
  18	 117
  19	  20
  19	  21
  19	  23
  19	  24
  19	  26
  19	  29
  19	  30
  19	  32
  19	  33
  19	  35
  19	  37
  19	  38
  19	  42
  19	  43
  19	  48
  19	  49
  19	  54
  19	  55
  19	  56
  19	  64
  19	  65
  19	  66
  19	  72
  19	  78
  19	  79
  19	  81
  19	  82
  19	  83
  19	  84
  19	  86
  19	  91
  19	  92
  19	 102
  19	 103
  19	 105
  19	 106
  19	 107
  19	 111
  19	 114
  19	 115
  19	 119
  20	  22
  20	  23
  20	  30
  20	  31
  20	  32
  20	  33
  20	  35
  20	  41
  20	  42
  20	  43
  20	  44
  20	  47
  20	  48
  20	  50
  20	  51
  20	  52
  20	  56
  20	  57
  20	  58
  20	  61
  20	  63
  20	  64
  20	  68
  20	  70
  20	  71
  20	  72
  20	  79
  20	  80
  20	  81
  20	  85
  20	  86
  20	  89
  20	  91
  20	  92
  20	  95
  20	  97
  20	 105
  20	 107
  20	 108
  20	 110
  20	 111
  20	 112
  20	 115
  21	  23
  21	  25
  21	  26
  21	  27
  21	  28
  21	  29
  21	  30
  21	  31
  21	  32
  21	  33
  21	  34
  21	  36
  21	  37
  21	  39
  21	  40
  21	  42
  21	  44
  21	  47
  21	  52
  21	  53
  21	  56
  21	  57
  21	  59
  21	  61
  21	  62
  21	  64
  21	  66
  21	  70
  21	  74
  21	  78
  21	  80
  21	  81
  21	  84
  21	  87
  21	  89
  21	  96
  21	  97
  21	  99
  21	 100
  21	 104
  21	 106
  21	 107
  21	 109
  21	 112
  21	 113
  21	 114
  21	 116
  21	 118
  22	  23
  22	  27
  22	  28
  22	  29
  22	  34
  22	  35
  22	  37
  22	  41
  22	  43
  22	  44
  22	  47
  22	  48
  22	  49
  22	  50
  22	  52
  22	  53
  22	  56
  22	  60
  22	  61
  22	  64
  22	  65
  22	  68
  22	  69
  22	  70
  22	  72
  22	  83
  22	  85
  22	  88
  22	  89
  22	  90
  22	  91
  22	  93
  22	  95
  22	  99
  22	 100
  22	 101
  22	 105
  22	 106
  22	 109
  22	 116
  22	 119
  23	  24
  23	  25
  23	  26
  23	  29
  23	  35
  23	  36
  23	  37
  23	  39
  23	  43
  23	  44
  23	  46
  23	  47
  23	  49
  23	  50
  23	  51
  23	  54
  23	  56
  23	  66
  23	  68
  23	  70
  23	  71
  23	  77
  23	  79
  23	  82
  23	  88
  23	  90
  23	  91
  23	  96
  23	  98
  23	 100
  23	 101
  23	 103
  23	 106
  23	 108
  23	 113
  23	 114
  23	 115
  23	 116
  23	 118
  24	  25
  24	  30
  24	  34
  24	  35
  24	  37
  24	  38
  24	  39
  24	  40
  24	  43
  24	  44
  24	  48
  24	  49
  24	  50
  24	  52
  24	  56
  24	  61
  24	  62
  24	  66
  24	  67
  24	  69
  24	  70
  24	  72
  24	  76
  24	  79
  24	  82
  24	  89
  24	  94
  24	  96
  24	 103
  24	 104
  24	 105
  24	 106
  24	 108
  24	 112
  24	 118
  24	 119
  25	  31
  25	  33
  25	  36
  25	  39
  25	  40
  25	  41
  25	  50
  25	  52
  25	  53
  25	  54
  25	  55
  25	  60
  25	  61
  25	  63
  25	  64
  25	  66
  25	  67
  25	  69
  25	  73
  25	  75
  25	  79
  25	  80
  25	  81
  25	  86
  25	  88
  25	  95
  25	  98
  25	  99
  25	 101
  25	 102
  25	 108
  25	 109
  25	 111
  25	 113
  25	 114
  25	 115
  25	 116
  25	 118
  25	 119
  26	  28
  26	  33
  26	  34
  26	  35
  26	  38
  26	  39
  26	  40
  26	  44
  26	  45
  26	  46
  26	  47
  26	  48
  26	  53
  26	  54
  26	  55
  26	  59
  26	  61
  26	  63
  26	  68
  26	  70
  26	  74
  26	  79
  26	  80
  26	  82
  26	  86
  26	  87
  26	  91
  26	  92
  26	  95
  26	  96
  26	  98
  26	 101
  26	 105
  26	 108
  26	 109
  26	 110
  26	 111
  26	 113
  26	 114
  26	 118
  27	  32
  27	  33
  27	  38
  27	  39
  27	  42
  27	  43
  27	  44
  27	  45
  27	  47
  27	  48
  27	  49
  27	  50
  27	  51
  27	  52
  27	  55
  27	  56
  27	  63
  27	  64
  27	  66
  27	  69
  27	  71
  27	  74
  27	  76
  27	  79
  27	  81
  27	  82
  27	  83
  27	  86
  27	  87
  27	  89
  27	  91
  27	  92
  27	  94
  27	  96
  27	  97
  27	 100
  27	 103
  27	 108
  27	 109
  27	 112
  27	 113
  27	 117
  28	  30
  28	  32
  28	  34
  28	  35
  28	  36
  28	  37
  28	  38
  28	  40
  28	  42
  28	  43
  28	  44
  28	  45
  28	  49
  28	  53
  28	  55
  28	  56
  28	  57
  28	  61
  28	  64
  28	  66
  28	  68
  28	  74
  28	  79
  28	  82
  28	  83
  28	  87
  28	  88
  28	  92
  28	  93
  28	  94
  28	  95
  28	  96
  28	  98
  28	 101
  28	 107
  28	 108
  28	 111
  28	 114
  28	 118
  29	  31
  29	  34
  29	  37
  29	  38
  29	  39
  29	  41
  29	  43
  29	  46
  29	  49
  29	  51
  29	  52
  29	  59
  29	  63
  29	  64
  29	  66
  29	  70
  29	  75
  29	  77
  29	  78
  29	  81
  29	  82
  29	  83
  29	  84
  29	  85
  29	  86
  29	  89
  29	  92
  29	  93
  29	  94
  29	  96
  29	  99
  29	 100
  29	 109
  29	 111
  29	 114
  29	 115
  29	 118
  30	  32
  30	  35
  30	  36
  30	  37
  30	  38
  30	  41
  30	  43
  30	  45
  30	  51
  30	  58
  30	  60
  30	  61
  30	  63
  30	  64
  30	  65
  30	  72
  30	  73
  30	  75
  30	  78
  30	  80
  30	  81
  30	  83
  30	  84
  30	  85
  30	  88
  30	  89
  30	  92
  30	  96
  30	 101
  30	 114
  30	 115
  30	 116
  31	  32
  31	  36
  31	  40
  31	  42
  31	  43
  31	  44
  31	  47
  31	  48
  31	  49
  31	  58
  31	  59
  31	  60
  31	  61
  31	  62
  31	  64
  31	  65
  31	  66
  31	  69
  31	  70
  31	  73
  31	  75
  31	  78
  31	  82
  31	  89
  31	  90
  31	  91
  31	  99
  31	 103
  31	 104
  31	 105
  31	 106
  31	 109
  31	 113
  31	 115
  31	 117
  31	 119
  32	  34
  32	  35
  32	  36
  32	  39
  32	  42
  32	  48
  32	  50
  32	  51
  32	  57
  32	  60
  32	  61
  32	  63
  32	  64
  32	  65
  32	  67
  32	  70
  32	  75
  32	  76
  32	  78
  32	  80
  32	  83
  32	  84
  32	  85
  32	  87
  32	  95
  32	 101
  32	 104
  32	 110
  32	 111
  32	 112
  32	 115
  32	 117
  32	 119
  33	  35
  33	  36
  33	  37
  33	  41
  33	  42
  33	  47
  33	  48
  33	  54
  33	  59
  33	  61
  33	  64
  33	  68
  33	  73
  33	  75
  33	  76
  33	  77
  33	  79
  33	  81
  33	  83
  33	  84
  33	  85
  33	  88
  33	  91
  33	  93
  33	  94
  33	  99
  33	 100
  33	 103
  33	 108
  33	 110
  33	 112
  33	 113
  34	  37
  34	  40
  34	  41
  34	  43
  34	  48
  34	  50
  34	  51
  34	  52
  34	  54
  34	  56
  34	  57
  34	  58
  34	  61
  34	  64
  34	  68
  34	  69
  34	  70
  34	  71
  34	  73
  34	  74
  34	  75
  34	  76
  34	  77
  34	  78
  34	  79
  34	  84
  34	  85
  34	  87
  34	  89
  34	  92
  34	  96
  34	  97
  34	 102
  34	 106
  34	 110
  34	 111
  34	 112
  34	 114
  34	 115
  34	 116
  35	  37
  35	  41
  35	  48
  35	  49
  35	  51
  35	  55
  35	  56
  35	  59
  35	  61
  35	  62
  35	  66
  35	  67
  35	  68
  35	  71
  35	  72
  35	  73
  35	  77
  35	  78
  35	  79
  35	  81
  35	  82
  35	  87
  35	  88
  35	  90
  35	  93
  35	  94
  35	  95
  35	  96
  35	 107
  35	 108
  35	 109
  35	 110
  35	 114
  35	 115
  35	 116
  36	  41
  36	  43
  36	  45
  36	  49
  36	  52
  36	  55
  36	  60
  36	  65
  36	  66
  36	  67
  36	  72
  36	  74
  36	  77
  36	  78
  36	  80
  36	  83
  36	  87
  36	  91
  36	  94
  36	  95
  36	  98
  36	 100
  36	 105
  36	 106
  36	 107
  36	 108
  36	 110
  36	 112
  36	 115
  36	 117
  36	 119
  37	  38
  37	  39
  37	  41
  37	  42
  37	  44
  37	  50
  37	  51
  37	  55
  37	  57
  37	  59
  37	  62
  37	  64
  37	  68
  37	  69
  37	  70
  37	  71
  37	  72
  37	  73
  37	  74
  37	  75
  37	  78
  37	  79
  37	  83
  37	  86
  37	  89
  37	  93
  37	  94
  37	  96
  37	  99
  37	 100
  37	 107
  37	 108
  37	 109
  37	 111
  37	 113
  37	 114
  37	 119
  38	  41
  38	  42
  38	  43
  38	  44
  38	  46
  38	  49
  38	  52
  38	  54
  38	  56
  38	  59
  38	  60
  38	  61
  38	  64
  38	  66
  38	  67
  38	  69
  38	  72
  38	  73
  38	  77
  38	  79
  38	  80
  38	  84
  38	  86
  38	  90
  38	  93
  38	  95
  38	  97
  38	 102
  38	 103
  38	 109
  38	 110
  38	 112
  38	 119
  39	  42
  39	  43
  39	  44
  39	  45
  39	  46
  39	  48
  39	  49
  39	  51
  39	  52
  39	  55
  39	  66
  39	  67
  39	  70
  39	  73
  39	  74
  39	  75
  39	  80
  39	  84
  39	  85
  39	  87
  39	  95
  39	  98
  39	 100
  39	 101
  39	 105
  39	 106
  39	 107
  39	 114
  39	 117
  39	 118
  40	  42
  40	  43
  40	  44
  40	  46
  40	  48
  40	  61
  40	  63
  40	  66
  40	  67
  40	  68
  40	  72
  40	  73
  40	  74
  40	  78
  40	  79
  40	  85
  40	  86
  40	  92
  40	  94
  40	  95
  40	  99
  40	 108
  40	 109
  40	 111
  40	 113
  40	 114
  40	 115
  40	 116
  40	 118
  41	  46
  41	  47
  41	  52
  41	  53
  41	  55
  41	  57
  41	  58
  41	  60
  41	  64
  41	  66
  41	  67
  41	  71
  41	  73
  41	  78
  41	  80
  41	  81
  41	  86
  41	  87
  41	  88
  41	  89
  41	  91
  41	  92
  41	  93
  41	  95
  41	  98
  41	 100
  41	 103
  41	 104
  41	 105
  41	 107
  41	 109
  41	 112
  41	 113
  41	 117
  42	  43
  42	  44
  42	  45
  42	  49
  42	  51
  42	  53
  42	  56
  42	  60
  42	  64
  42	  65
  42	  68
  42	  71
  42	  73
  42	  74
  42	  82
  42	  84
  42	  87
  42	  90
  42	  92
  42	  93
  42	  96
  42	  98
  42	 100
  42	 101
  42	 106
  42	 109
  42	 110
  42	 114
  42	 117
  42	 118
  43	  44
  43	  45
  43	  46
  43	  47
  43	  48
  43	  49
  43	  53
  43	  54
  43	  55
  43	  59
  43	  63
  43	  66
  43	  67
  43	  69
  43	  70
  43	  72
  43	  74
  43	  75
  43	  76
  43	  83
  43	  88
  43	  89
  43	  94
  43	  98
  43	  99
  43	 100
  43	 104
  43	 107
  43	 108
  43	 109
  43	 111
  43	 112
  43	 115
  43	 118
  44	  47
  44	  49
  44	  55
  44	  56
  44	  57
  44	  58
  44	  60
  44	  62
  44	  63
  44	  67
  44	  68
  44	  71
  44	  73
  44	  74
  44	  75
  44	  76
  44	  77
  44	  81
  44	  82
  44	  84
  44	  85
  44	  93
  44	  97
  44	  99
  44	 101
  44	 102
  44	 104
  44	 106
  44	 107
  44	 111
  44	 115
  45	  58
  45	  59
  45	  63
  45	  66
  45	  71
  45	  74
  45	  75
  45	  77
  45	  81
  45	  87
  45	  88
  45	  90
  45	  93
  45	  94
  45	  97
  45	  99
  45	 101
  45	 102
  45	 106
  45	 109
  45	 113
  45	 114
  45	 115
  45	 116
  45	 118
  46	  47
  46	  48
  46	  52
  46	  54
  46	  55
  46	  57
  46	  60
  46	  63
  46	  66
  46	  68
  46	  69
  46	  71
  46	  73
  46	  75
  46	  79
  46	  80
  46	  81
  46	  82
  46	  85
  46	  88
  46	  91
  46	  92
  46	  93
  46	  94
  46	 102
  46	 104
  46	 106
  46	 108
  46	 109
  46	 110
  46	 112
  46	 115
  46	 117
  47	  51
  47	  53
  47	  54
  47	  56
  47	  57
  47	  59
  47	  60
  47	  62
  47	  63
  47	  67
  47	  70
  47	  72
  47	  74
  47	  75
  47	  76
  47	  81
  47	  87
  47	  90
  47	  93
  47	  96
  47	 101
  47	 108
  47	 113
  47	 115
  47	 118
  47	 119
  48	  53
  48	  54
  48	  56
  48	  57
  48	  58
  48	  60
  48	  62
  48	  63
  48	  64
  48	  65
  48	  68
  48	  73
  48	  74
  48	  80
  48	  83
  48	  84
  48	  85
  48	  86
  48	  87
  48	  89
  48	  90
  48	  92
  48	  95
  48	 104
  48	 107
  48	 112
  48	 113
  48	 115
  48	 117
  49	  51
  49	  58
  49	  59
  49	  60
  49	  61
  49	  64
  49	  68
  49	  69
  49	  71
  49	  75
  49	  76
  49	  78
  49	  81
  49	  82
  49	  85
  49	  86
  49	  93
  49	  94
  49	  95
  49	  97
  49	 101
  49	 105
  49	 107
  49	 108
  49	 110
  49	 111
  49	 112
  49	 113
  49	 114
  49	 116
  49	 119
  50	  51
  50	  57
  50	  58
  50	  64
  50	  67
  50	  69
  50	  72
  50	  73
  50	  77
  50	  78
  50	  82
  50	  83
  50	  86
  50	  88
  50	  93
  50	  95
  50	  96
  50	  97
  50	 103
  50	 105
  50	 107
  50	 108
  50	 111
  50	 113
  50	 116
  50	 117
  50	 118
  50	 119
  51	  52
  51	  62
  51	  64
  51	  70
  51	  71
  51	  81
  51	  82
  51	  86
  51	  88
  51	  89
  51	  90
  51	  91
  51	  92
  51	  94
  51	  95
  51	 104
  51	 107
  51	 109
  51	 110
  51	 111
  51	 112
  51	 113
  51	 114
  51	 118
  51	 119
  52	  53
  52	  55
  52	  61
  52	  63
  52	  65
  52	  70
  52	  73
  52	  76
  52	  78
  52	  81
  52	  84
  52	  87
  52	  88
  52	  89
  52	  91
  52	  93
  52	  94
  52	  95
  52	  97
  52	  99
  52	 103
  52	 106
  52	 107
  52	 109
  52	 110
  52	 111
  52	 112
  52	 113
  52	 115
  52	 118
  53	  56
  53	  57
  53	  58
  53	  60
  53	  62
  53	  63
  53	  68
  53	  70
  53	  73
  53	  76
  53	  77
  53	  78
  53	  82
  53	  84
  53	  88
  53	  90
  53	  95
  53	  99
  53	 103
  53	 109
  53	 111
  53	 114
  53	 116
  53	 117
  53	 118
  54	  55
  54	  56
  54	  59
  54	  62
  54	  66
  54	  68
  54	  71
  54	  74
  54	  76
  54	  84
  54	  85
  54	  86
  54	  88
  54	  89
  54	  90
  54	  91
  54	  92
  54	  94
  54	  95
  54	  97
  54	  98
  54	 106
  54	 109
  54	 116
  54	 118
  54	 119
  55	  58
  55	  60
  55	  63
  55	  67
  55	  70
  55	  71
  55	  74
  55	  77
  55	  80
  55	  81
  55	  83
  55	  85
  55	  87
  55	  89
  55	  90
  55	  94
  55	  99
  55	 100
  55	 101
  55	 106
  55	 108
  55	 112
  55	 117
  55	 118
  55	 119
  56	  58
  56	  59
  56	  73
  56	  78
  56	  84
  56	  85
  56	  87
  56	  88
  56	  90
  56	  91
  56	  93
  56	  95
  56	  99
  56	 104
  56	 105
  56	 106
  56	 107
  56	 110
  56	 112
  56	 114
  56	 116
  56	 119
  57	  58
  57	  59
  57	  60
  57	  61
  57	  65
  57	  66
  57	  71
  57	  73
  57	  74
  57	  77
  57	  78
  57	  82
  57	  84
  57	  85
  57	  87
  57	  88
  57	  89
  57	  91
  57	  95
  57	  96
  57	  99
  57	 105
  57	 109
  57	 110
  57	 111
  57	 113
  57	 114
  57	 115
  57	 118
  57	 119
  58	  60
  58	  64
  58	  68
  58	  69
  58	  70
  58	  71
  58	  73
  58	  74
  58	  76
  58	  84
  58	  87
  58	  88
  58	  89
  58	  90
  58	  93
  58	  95
  58	  96
  58	  97
  58	  98
  58	 102
  58	 108
  58	 113
  58	 114
  59	  62
  59	  63
  59	  64
  59	  65
  59	  67
  59	  68
  59	  69
  59	  71
  59	  73
  59	  75
  59	  76
  59	  91
  59	  92
  59	  95
  59	  96
  59	  97
  59	  98
  59	 100
  59	 102
  59	 104
  59	 108
  59	 109
  59	 111
  59	 112
  59	 113
  59	 115
  59	 116
  59	 117
  59	 118
  59	 119
  60	  62
  60	  65
  60	  68
  60	  69
  60	  70
  60	  71
  60	  72
  60	  75
  60	  76
  60	  78
  60	  79
  60	  83
  60	  84
  60	  85
  60	  87
  60	  96
  60	  98
  60	  99
  60	 101
  60	 102
  60	 106
  60	 108
  60	 111
  60	 113
  60	 117
  60	 119
  61	  68
  61	  72
  61	  73
  61	  74
  61	  76
  61	  78
  61	  80
  61	  92
  61	  94
  61	 101
  61	 105
  61	 109
  61	 111
  61	 115
  61	 116
  62	  65
  62	  66
  62	  67
  62	  68
  62	  69
  62	  71
  62	  81
  62	  85
  62	  89
  62	  90
  62	  91
  62	  98
  62	  99
  62	 109
  62	 114
  63	  64
  63	  68
  63	  69
  63	  70
  63	  71
  63	  74
  63	  76
  63	  80
  63	  86
  63	  87
  63	  88
  63	  89
  63	  90
  63	  91
  63	  99
  63	 113
  64	  65
  64	  69
  64	  76
  64	  78
  64	  86
  64	  90
  64	  91
  64	  93
  64	  94
  64	  95
  64	  98
  64	  99
  64	 103
  64	 104
  64	 105
  64	 109
  64	 110
  64	 112
  64	 118
  65	  67
  65	  70
  65	  74
  65	  79
  65	  81
  65	  82
  65	  84
  65	  85
  65	  86
  65	  87
  65	  89
  65	  90
  65	  97
  65	  99
  65	 100
  65	 102
  65	 103
  65	 106
  65	 107
  65	 108
  65	 112
  65	 114
  65	 117
  66	  68
  66	  70
  66	  72
  66	  78
  66	  80
  66	  85
  66	  86
  66	  89
  66	  90
  66	  95
  66	  97
  66	  98
  66	 101
  66	 102
  66	 103
  66	 104
  66	 108
  66	 109
  66	 110
  66	 114
  66	 118
  66	 119
  67	  71
  67	  73
  67	  74
  67	  77
  67	  78
  67	  79
  67	  81
  67	  82
  67	  85
  67	  86
  67	  87
  67	  88
  67	  91
  67	  96
  67	 100
  67	 102
  67	 106
  67	 111
  67	 113
  67	 114
  67	 116
  67	 118
  68	  69
  68	  71
  68	  78
  68	  82
  68	  85
  68	  88
  68	  90
  68	  91
  68	  94
  68	  97
  68	  98
  68	 100
  68	 104
  68	 105
  68	 107
  68	 108
  68	 109
  68	 110
  68	 113
  68	 116
  68	 117
  68	 119
  69	  71
  69	  74
  69	  76
  69	  77
  69	  78
  69	  81
  69	  85
  69	  88
  69	  91
  69	  92
  69	  94
  69	  96
  69	  99
  69	 104
  69	 107
  69	 108
  69	 110
  69	 112
  69	 115
  69	 116
  70	  72
  70	  73
  70	  74
  70	  76
  70	  78
  70	  81
  70	  84
  70	  88
  70	  89
  70	  95
  70	  96
  70	  98
  70	 100
  70	 103
  70	 107
  70	 113
  70	 116
  70	 117
  70	 119
  71	  77
  71	  79
  71	  85
  71	  88
  71	  89
  71	  92
  71	  93
  71	  95
  71	  97
  71	  98
  71	 104
  71	 105
  71	 108
  71	 115
  71	 119
  72	  74
  72	  75
  72	  76
  72	  83
  72	  91
  72	  93
  72	  94
  72	  99
  72	 104
  72	 105
  72	 106
  72	 107
  72	 108
  72	 116
  73	  75
  73	  77
  73	  78
  73	  79
  73	  80
  73	  82
  73	  83
  73	  86
  73	  89
  73	  93
  73	  96
  73	  97
  73	  98
  73	 100
  73	 102
  73	 105
  73	 113
  73	 115
  73	 116
  74	  78
  74	  84
  74	  87
  74	  89
  74	  92
  74	  93
  74	  96
  74	 100
  74	 104
  74	 105
  74	 108
  74	 109
  74	 112
  74	 113
  74	 114
  74	 115
  74	 116
  74	 117
  74	 118
  74	 119
  75	  77
  75	  79
  75	  82
  75	  85
  75	  89
  75	  91
  75	  93
  75	  94
  75	  95
  75	  96
  75	  98
  75	 100
  75	 105
  75	 107
  75	 108
  75	 110
  75	 114
  75	 119
  76	  78
  76	  82
  76	  85
  76	  86
  76	  87
  76	  91
  76	  93
  76	  95
  76	  96
  76	  98
  76	 100
  76	 102
  76	 110
  76	 111
  76	 114
  76	 117
  76	 118
  77	  78
  77	  86
  77	  88
  77	  90
  77	  91
  77	  92
  77	  95
  77	  96
  77	  98
  77	 100
  77	 101
  77	 102
  77	 103
  77	 104
  77	 112
  77	 115
  77	 118
  78	  80
  78	  81
  78	  86
  78	  87
  78	  92
  78	  96
  78	  98
  78	  99
  78	 102
  78	 104
  78	 106
  78	 107
  78	 110
  78	 112
  78	 113
  78	 114
  78	 116
  78	 118
  79	  80
  79	  84
  79	  87
  79	  89
  79	  92
  79	  93
  79	  97
  79	 101
  79	 102
  79	 104
  79	 106
  79	 110
  79	 114
  79	 115
  79	 117
  80	  81
  80	  86
  80	  88
  80	  90
  80	  91
  80	  92
  80	 101
  80	 102
  80	 103
  80	 110
  80	 111
  80	 113
  80	 116
  80	 117
  80	 119
  81	  82
  81	  84
  81	  85
  81	  87
  81	  90
  81	  91
  81	  99
  81	 100
  81	 105
  81	 109
  81	 114
  81	 116
  81	 119
  82	  84
  82	  88
  82	  89
  82	  91
  82	  92
  82	  94
  82	  97
  82	  98
  82	 104
  82	 106
  82	 110
  82	 111
  82	 119
  83	  86
  83	  92
  83	  98
  83	  99
  83	 108
  83	 110
  83	 113
  83	 116
  83	 118
  83	 119
  84	  85
  84	  90
  84	  91
  84	  93
  84	  96
  84	  99
  84	 100
  84	 101
  84	 105
  84	 107
  84	 108
  84	 111
  84	 113
  84	 116
  84	 118
  85	  86
  85	  90
  85	  92
  85	  97
  85	 100
  85	 102
  85	 106
  85	 107
  85	 108
  85	 109
  85	 110
  85	 112
  85	 113
  85	 114
  85	 115
  85	 119
  86	  88
  86	  89
  86	  93
  86	  94
  86	  95
  86	  99
  86	 100
  86	 102
  86	 103
  86	 104
  86	 106
  86	 108
  86	 111
  86	 114
  86	 118
  87	  89
  87	  92
  87	  93
  87	  94
  87	  97
  87	  98
  87	 105
  87	 112
  87	 113
  87	 114
  87	 115
  87	 116
  87	 118
  87	 119
  88	  89
  88	  93
  88	  95
  88	  98
  88	 103
  88	 107
  88	 109
  88	 112
  88	 116
  88	 117
  88	 118
  88	 119
  89	  91
  89	  96
  89	  98
  89	 105
  89	 106
  89	 107
  89	 110
  89	 111
  89	 112
  89	 116
  90	  93
  90	  95
  90	  96
  90	 101
  90	 102
  90	 108
  90	 110
  90	 111
  90	 112
  90	 114
  90	 116
  90	 117
  90	 118
  91	  94
  91	  95
  91	  97
  91	  98
  91	 101
  91	 102
  91	 106
  91	 107
  91	 108
  91	 110
  91	 111
  91	 116
  92	  95
  92	  97
  92	 104
  92	 105
  92	 106
  92	 109
  92	 110
  92	 111
  92	 117
  92	 118
  93	  97
  93	  98
  93	 107
  93	 108
  93	 109
  93	 110
  93	 111
  93	 112
  93	 114
  93	 116
  93	 117
  94	  95
  94	 103
  94	 104
  94	 105
  94	 110
  94	 114
  94	 117
  94	 118
  94	 119
  95	  99
  95	 100
  95	 101
  95	 102
  95	 104
  95	 106
  95	 107
  95	 110
  95	 112
  95	 113
  95	 114
  95	 116
  95	 117
  95	 118
  96	  98
  96	  99
  96	 106
  96	 108
  96	 109
  96	 110
  96	 115
  96	 117
  96	 118
  97	  99
  97	 100
  97	 102
  97	 103
  97	 104
  97	 105
  97	 110
  97	 115
  98	  99
  98	 100
  98	 103
  98	 107
  98	 111
  98	 112
  98	 114
  98	 115
  98	 116
  99	 100
  99	 101
  99	 103
  99	 105
  99	 106
  99	 107
  99	 108
  99	 109
  99	 111
  99	 112
  99	 113
  99	 114
 100	 101
 100	 102
 100	 108
 100	 109
 100	 110
 100	 112
 100	 116
 101	 102
 101	 103
 101	 105
 101	 106
 101	 111
 101	 113
 101	 117
 102	 105
 102	 106
 102	 108
 102	 110
 102	 112
 102	 114
 102	 115
 102	 119
 103	 104
 103	 107
 103	 108
 103	 109
 103	 112
 103	 113
 103	 118
 104	 106
 104	 110
 104	 112
 104	 113
 105	 106
 105	 107
 105	 108
 105	 110
 105	 112
 105	 113
 105	 117
 106	 110
 106	 112
 106	 119
 107	 108
 107	 110
 107	 112
 107	 116
 107	 117
 107	 119
 108	 109
 108	 112
 108	 114
 109	 113
 109	 115
 109	 116
 109	 117
 110	 111
 110	 113
 110	 115
 110	 116
 110	 117
 110	 118
 112	 116
 112	 117
 112	 118
 113	 117
 113	 119
 114	 117
 114	 118
 115	 116
 115	 117
 116	 118
 116	 119
 117	 119
 118	 119
;
